%%% static parameters %%%
timespan = 1;
Clients_N = [4000];
Demand_W = [15];
Lt0 = [4];
Lt1 = [4];
SS_ = [0.85];
DS_D = [20];
K = [200];
MA = [500];
HC = [0.05];
%%% dynamic parameters %%%
lost_ratio_sales_ret_th = 0.00011484368709435;
lost_ratio_sales_ret_w = 64;
lost_ratio_sales_dis_th = 0.00011352352031292646;
lost_ratio_sales_dis_w = 6;
lost_ratio_sales_fac_th = 0.0007483975320567263;
lost_ratio_sales_fac_w = 25;
stock_customer_MA_mean_relative_th = 0.6592678378462749;
stock_customer_MA_mean_relative_w = 7;
stock_distributor_MA_mean_relative_th = 0.37124706498283866;
stock_distributor_MA_mean_relative_w = 38;
stock_retailer_MA_mean_relative_th = 0.7451292453107432;
stock_retailer_MA_mean_relative_w = 73;
stock_factory_MA_mean_relative_th = 0.696099221942163;
stock_factory_MA_mean_relative_w = 60;
